
Gurobi 10.0.0 (mac64[arm], gurobi_cl) logging started Mon Nov 27 09:59:00 2023

Set parameter Username
Set parameter LogFile to value "gurobi.log"
Academic license - for non-commercial use only - expires 2024-02-11
Using license file /Users/greg/gurobi.lic

Gurobi 10.0.0 (mac64[arm], gurobi_cl) logging started Mon Nov 27 10:00:13 2023

Set parameter Username
Set parameter LogFile to value "gurobi.log"
Academic license - for non-commercial use only - expires 2024-02-11
Using license file /Users/greg/gurobi.lic
